Traveling Salesman Problem/TSP_generados/Aleatorio1620391000_12.tsp
NAME: Aleatorio1620391000_12.tsp
COMMENT: Randomly generated scenario
TYPE: TSP
DIMENSION: 12
EDGE_WEIGHT_TYPE: ATT
NODE_COORD_SECTION
1 40.01 46.79
2 32.78 19.95
3 24.58 38.34
4 25.8 37.87
5 49.46 39.83
6 1.49 45.74
7 21.99 34.41
8 22.35 25.22
9 10.55 34.86
10 39.55 36.51
11 17.28 26.34
12 40.17 9.15
