Traveling Salesman Problem/TSP_generados/Aleatorio1620391000_12.opt.tour
NAME: Aleatorio1620391000_12.opt.tour
COMMENT: Optimal solution for Aleatorio1620391000_12 (150.7492886115819)
TYPE: TOUR
DIMENSION: 12
TOUR_SECTION
1 5 10 12 2 8 11 9 6 7 3 4
-1
EOF
